[AdminPlayerList]
[AdminPlayerList]
; EN: ColumnHeadings=("Player Name","Unique ID","IP")
ColumnHeadings=("","","")

[Browser_AddBuddy]
; EN: AddBuddyDesc.Caption="Add Buddy"
AddBuddyDesc.Caption=""
; EN: BuddyEntryBox.Caption="Buddy Name: "
BuddyEntryBox.Caption=""
; EN: CancelButton.Caption="CANCEL"
CancelButton.Caption=""
; EN: OkButton.Caption="OK"
OkButton.Caption=""

[Browser_BuddyList]
; EN: ColumnHeadings=("Buddy Name")
ColumnHeadings=("")

[Browser_IRC]
; EN: SystemLabel="System"
SystemLabel=""
; EN: LeaveChannelCaption="LEAVE CHANNEL"
LeaveChannelCaption=""
; EN: LeavePrivateCaptionHead="CLOSE "
LeavePrivateCaptionHead=""
; EN: ChooseNewNickText="Choose A New Chat Nickname"
ChooseNewNickText=""
; EN: MyBackButton.Caption="BACK"
MyBackButton.Caption=""
; EN: MyChangeNickButton.Caption="CHANGE NICK"
MyChangeNickButton.Caption=""

[Browser_IconKey]
; EN: DialogText.Caption="Server Icon Key"
DialogText.Caption=""
; EN: OkButton.Caption="OK"
OkButton.Caption=""

[Browser_MOTD]
; EN: VersionString="Ver."
VersionString=""
; EN: MyBackButton.Caption="BACK"
MyBackButton.Caption=""
; EN: MyRefreshButton.Caption="REFRESH"
MyRefreshButton.Caption=""
; EN: MyUpgradeButton.Caption="UPGRADE"
MyUpgradeButton.Caption=""

[Browser_OpenIP]
; EN: CancelButton.Caption="CANCEL"
CancelButton.Caption=""
; EN: IpEntryBox.Caption="IP Address: "
IpEntryBox.Caption=""
; EN: OkButton.Caption="OK"
OkButton.Caption=""
; EN: OpenIPDesc.Caption="Enter New IP Address"
OpenIPDesc.Caption=""

[Browser_Page]
; EN: StartQueryString="Querying Master Server"
StartQueryString=""
; EN: AuthFailString="Authentication Failed"
AuthFailString=""
; EN: ConnFailString="Connection Failed - Retrying"
ConnFailString=""
; EN: ConnTimeoutString="Connection Timed Out"
ConnTimeoutString=""
; EN: QueryCompleteString="Query Complete!"
QueryCompleteString=""
; EN: RefreshCompleteString="Refresh Complete!"
RefreshCompleteString=""
; EN: ReadyString="Ready"
ReadyString=""

[Browser_PlayersList]
; EN: ColumnHeadings=("Player Name","Score","Stats ID","Ping")
ColumnHeadings=("","","","")

[Browser_Prefs]
; EN: ViewStatsStrings[0]="Any Servers"
ViewStatsStrings[0]=""
; EN: ViewStatsStrings[1]="Only Stats Servers"
ViewStatsStrings[1]=""
; EN: ViewStatsStrings[2]="No Stats Servers"
ViewStatsStrings[2]=""
; EN: MutatorModeStrings[0]="Any Mutators"
MutatorModeStrings[0]=""
; EN: MutatorModeStrings[1]="No Mutators"
MutatorModeStrings[1]=""
; EN: MutatorModeStrings[2]="This Mutator"
MutatorModeStrings[2]=""
; EN: MutatorModeStrings[3]="Not This Mutator"
MutatorModeStrings[3]=""
; EN: WeaponStayStrings[0]="Any Servers"
WeaponStayStrings[0]=""
; EN: WeaponStayStrings[1]="Only Weapon Stay Servers"
WeaponStayStrings[1]=""
; EN: WeaponStayStrings[2]="No Weapon Stay Servers"
WeaponStayStrings[2]=""
; EN: TranslocatorStrings[0]="Any Servers"
TranslocatorStrings[0]=""
; EN: TranslocatorStrings[1]="Only Translocator Servers"
TranslocatorStrings[1]=""
; EN: TranslocatorStrings[2]="No Translocator Servers"
TranslocatorStrings[2]=""
; EN: CustomQuery.Caption="Custom Query"
CustomQuery.Caption=""
; EN: FilterTitle.Caption="Server Filtering Options:"
FilterTitle.Caption=""
; EN: MaxGamespeed.Caption="Max"
MaxGamespeed.Caption=""
; EN: MinGamespeed.Caption="Game Speed Min"
MinGamespeed.Caption=""
; EN: MutatorModeCombo.Caption="Mutators"
MutatorModeCombo.Caption=""
; EN: MyBackButton.Caption="BACK"
MyBackButton.Caption=""
; EN: MyKeyButton.Caption="ICON KEY"
MyKeyButton.Caption=""
; EN: NoBotServersCheckBox.Caption="No Servers With Bots"
NoBotServersCheckBox.Caption=""
; EN: NoEmptyCheckBox.Caption="No Empty Servers"
NoEmptyCheckBox.Caption=""
; EN: NoFullCheckBox.Caption="No Full Servers"
NoFullCheckBox.Caption=""
; EN: NoPasswdCheckBox.Caption="No Passworded Servers"
NoPasswdCheckBox.Caption=""
; EN: OnlyStandardCheckBox.Caption="Only Standard Servers"
OnlyStandardCheckBox.Caption=""
; EN: StatsViewCombo.Caption="Stats Servers"
StatsViewCombo.Caption=""
; EN: TranslocatorCombo.Caption="Translocator"
TranslocatorCombo.Caption=""
; EN: WeaponStayCombo.Caption="Weapon Stay"
WeaponStayCombo.Caption=""

[Browser_RulesList]
; EN: TrueString="Enabled"
TrueString=""
; EN: FalseString="Disabled"
FalseString=""
; EN: ServerModeString="Server Mode"
ServerModeString=""
; EN: DedicatedString="Dedicated"
DedicatedString=""
; EN: NonDedicatedString="Non-Dedicated"
NonDedicatedString=""
; EN: AdminNameString="Server Admin"
AdminNameString=""
; EN: AdminEmailString="Admin Email"
AdminEmailString=""
; EN: PasswordString="Requires Password"
PasswordString=""
; EN: GameStatsString="UT2004 Stats"
GameStatsString=""
; EN: GameSpeedString="Game Speed"
GameSpeedString=""
; EN: MutatorString="Mutator"
MutatorString=""
; EN: BalanceTeamsString="Bots Balance Teams"
BalanceTeamsString=""
; EN: PlayersBalanceTeamsString="Balance Teams"
PlayersBalanceTeamsString=""
; EN: FriendlyFireString="Friendly Fire"
FriendlyFireString=""
; EN: GoalScoreString="Goal Score"
GoalScoreString=""
; EN: TimeLimitString="Time Limit"
TimeLimitString=""
; EN: MinPlayersString="Minimum Players (bots)"
MinPlayersString=""
; EN: TranslocatorString="Translocator"
TranslocatorString=""
; EN: WeaponStayString="Weapons Stay"
WeaponStayString=""
; EN: ColumnHeadings=("Setting","Value")
ColumnHeadings=("","")

[Browser_ServerListPageBase]
; EN: AddFavoriteButton.Caption="ADD FAVORITE"
AddFavoriteButton.Caption=""
; EN: BackButton.Caption="BACK"
BackButton.Caption=""
; EN: JoinButton.Caption="JOIN"
JoinButton.Caption=""
; EN: RefreshButton.Caption="REFRESH LIST"
RefreshButton.Caption=""
; EN: SpectateButton.Caption="SPECTATE"
SpectateButton.Caption=""

[Browser_ServerListPageBuddy]
; EN: AddBuddyCaption="ADD BUDDY"
AddBuddyCaption=""
; EN: RemoveBuddyCaption="REMOVE BUDDY"
RemoveBuddyCaption=""

[Browser_ServerListPageFavorites]
; EN: RemoveFavoriteCaption="REMOVE FAVORITE"
RemoveFavoriteCaption=""
; EN: AddIPCaption="ADD IP"
AddIPCaption=""
; EN: RePingCaption="RE-PING LIST"
RePingCaption=""

[Browser_ServerListPageMS]
; EN: QueryFinHead="Query Complete! Received: "
QueryFinHead=""
; EN: QueryFinTail=" Servers"
QueryFinTail=""
; EN: PingRecvString="Pinging Servers"
PingRecvString=""
; EN: MustUpgradeString="Upgrade available. Please refresh the News page."
MustUpgradeString=""
; EN: RefreshFinHead="Pinging Complete! "
RefreshFinHead=" "
; EN: RefreshFinMid=" Servers, "
RefreshFinMid=""
; EN: RefreshFinTail=" Players"
RefreshFinTail=""
; EN: RePingServersCaption="RE-PING LIST"
RePingServersCaption=""
; EN: RefreshCaption="REFRESH LIST"
RefreshCaption=""

[Browser_ServerListPageMSCustom]
; EN: MyGameTypeLabel.Caption="Game Type"
MyGameTypeLabel.Caption=""

[Browser_ServersList]
; EN: IconDescriptions=("Passworded","Stats Enabled","Latest Version","Listen Server","Instagib","Standard Server","UT Classic")
IconDescriptions=("","","","","","","")
; EN: ColumnHeadings=(,"Server Name","Map","Players","Ping")
ColumnHeadings=(,"","","","")

[DefaultCrosshairs]
; EN: Crosshair=((FriendlyName="Cross (1)"),(FriendlyName="Cross (2)"),(FriendlyName="Cross (3)"),(FriendlyName="Cross (4)"),(FriendlyName="Cross (5)"),(FriendlyName="Dot"),(FriendlyName="Pointer"),(FriendlyName="Triad (1)"),(FriendlyName="Triad (2)"),(FriendlyName="Triad (3)"),(FriendlyName="Bracket (1)"),(FriendlyName="Bracket (2)"),(FriendlyName="Circle (1)"),(FriendlyName="Circle (2)"))
Crosshair=((FriendlyName=""),(FriendlyName=""),(FriendlyName=""),(FriendlyName=""),(FriendlyName=""),(FriendlyName="Punto"),(FriendlyName="Puntero"),(FriendlyName=""),(FriendlyName=""),(FriendlyName=""),(FriendlyName=""),(FriendlyName=""),(FriendlyName=""),(FriendlyName=""))

[ExtendedConsole]
; EN: AddedCurrentHead="Added Server:"
AddedCurrentHead=""
; EN: AddedCurrentTail="To Favorites!"
AddedCurrentTail=""
; EN: ServerFullMsg="Server is now full"
ServerFullMsg=""
; EN: SMStateName[0]="Speech Menu"
SMStateName[0]=""
; EN: SMStateName[1]="Voice Chat"
SMStateName[1]=""
; EN: SMStateName[2]="Acknowledge"
SMStateName[2]=""
; EN: SMStateName[3]="Friendly Fire"
SMStateName[3]=""
; EN: SMStateName[4]="Order"
SMStateName[4]=""
; EN: SMStateName[5]="Other"
SMStateName[5]=""
; EN: SMStateName[6]="Taunt"
SMStateName[6]=""
; EN: SMStateName[7]="Taunt Anim"
SMStateName[7]=""
; EN: SMStateName[8]="Player Select"
SMStateName[8]=""
; EN: SMChannelOptions[0]="Join"
SMChannelOptions[0]=""
; EN: SMChannelOptions[1]="Leave"
SMChannelOptions[1]=""
; EN: SMChannelOptions[2]="Talk"
SMChannelOptions[2]=""
; EN: SMAllString="[ALL]"
SMAllString=""
; EN: SMMoreString="[MORE]"
SMMoreString=""

[GUIController]
; EN: DesignModeHints=((Key=" Key",Description="                                Description"),(Key=" (F1)",Description="                                View this help screen"),(Key=" Ctrl + Alt + D",Description="                      Toggles design mode"),(Key=" Ctrl + Alt + E",Description="                      Toggles property editor mode"),(Key=" [Ctrl +] H",Description="                          Toggles active/focused info"),(Key=" [Ctrl +] I",Description="                          Toggle interactive mode"),(Key=" [Ctrl +] P",Description="                          Toggles full MenuOwner chains for active/focused"),(Key=" [Ctrl +] C",Description="                          Copy MoveControl position to clipboard"),(Key=" [Ctrl +] X",Description="                          Export MoveControl to clipboard"),(Key=" [Ctrl +] U",Description="                          Refresh the property window in the designer"),(Key=" [Ctrl +] Up/Down/Left/Right",Description="         Reposition MoveControl using arrow keys"),(Key=" [Ctrl +] +/-",Description="                        Resize MoveControl vertically"),(Key=" [Ctrl +] Num+/Num-",Description="                  Resize selected component horizontally"),(Key=" [Ctrl +] WheelUp",Description="                    Set MoveControl to MoveControl's menuowner"),(Key=" [Ctrl +] WheenDown",Description="                  Set MoveControl to MoveControl's focused control"),(Key=" [(Ctrl + Alt) +] MouseX/Y+LMouse",Description="    Reposition MoveControl using mouse"),(Key=" (Shift)",Description="                             Hides all design mode indicators"),(Key=" (Ctrl + Alt)",Description="                        View focus chain"),(Key=" [Ctrl +] Tab",Description="                        Select new MoveControl"),(Key=" [Ctrl +] LMouse",Description="                     Select new MoveControl"))
DesignModeHints=((Key="",Description=""),(Key="",Description=""),(Key="",Description=""),(Key="",Description=""),(Key="",Description=""),(Key="",Description=""),(Key="",Description=""),(Key="",Description=""),(Key="",Description=""),(Key="",Description=""),(Key="",Description=""),(Key="",Description=""),(Key="",Description=""),(Key="",Description=""),(Key="",Description=""),(Key="",Description=""),(Key="",Description=""),(Key="",Description=""),(Key="",Description=""),(Key="",Description="")

[GUIQuestionPage]
; EN: ButtonNames=("Ok","Cancel","Retry","Continue","Yes","No","Abort","Ignore")
ButtonNames=("","","","","","","","")

[HudBTeamDeathMatch]
; EN: LinkEstablishedMessage="LINK ESTABLISHED"
LinkEstablishedMessage=""

[HudBase]
; EN: LevelActionLoading="LOADING..."
LevelActionLoading=""
; EN: LevelActionPaused="PAUSED"
LevelActionPaused=""
; EN: WonMatchPostFix=" won the match!"
WonMatchPostFix=""
; EN: WaitingToSpawn="Press [Fire] to join the match!"
WaitingToSpawn=""
; EN: AtMenus="Press [ESC] to close menu"
AtMenus=""
; EN: YouveWonTheMatch="You've won the match!"
YouveWonTheMatch=""
; EN: YouveLostTheMatch="You've lost the match."
YouveLostTheMatch=""
; EN: NowViewing="Now viewing"
NowViewing=""
; EN: ScoreText="Score"
ScoreText=""
; EN: InitialViewingString="Press Fire to View a different Player"
InitialViewingString=""
; N_K: FONTS, DO NOT TRANSLATE!
InstructionFontName=UT2003Fonts.jFontMono800x600
LevelActionFontName=UT2003Fonts.FontMedium
ProgressFontName=UT2003Fonts.FontMedium
FontArrayNames[0]=UT2003Fonts.FontEurostile37
FontArrayNames[1]=UT2003Fonts.FontEurostile29
FontArrayNames[2]=UT2003Fonts.FontEurostile24
FontArrayNames[3]=UT2003Fonts.FontEurostile21
FontArrayNames[4]=UT2003Fonts.FontEurostile17
FontArrayNames[5]=UT2003Fonts.FontEurostile14
FontArrayNames[6]=UT2003Fonts.FontEurostile12
FontArrayNames[7]=UT2003Fonts.FontEurostile9
FontArrayNames[8]=UT2003Fonts.FontSmallText

[HudCTeamDeathMatch]
; EN: LinkEstablishedMessage="LINK ESTABLISHED"
LinkEstablishedMessage=""

[IRCLink]
; EN: InvalidAddressText="Invalid server address, aborting."
InvalidAddressText=""
; EN: ErrorBindingText="Error binding local port, aborting."
ErrorBindingText=""
; EN: ResolveFailedText="Failed to resolve server address, aborting."
ResolveFailedText=""
; EN: ConnectedText="Connected."
ConnectedText=""
; EN: ConnectingToText="Connecting to"
ConnectingToText=""
; EN: TimeOutError="Timeout connecting to server."
TimeOutError=""
; EN: InviteString="invites you to join"
InviteString=""
; EN: NickInUseText="Nickname Already In Use"
NickInUseText=""
; EN: NickInvalidText="Nickname Is Invalid"
NickInvalidText=""

[IRC_NewNick]
; EN: NewNickEntry.Caption="New Nickname: "
NewNickEntry.Caption=""
; EN: OkButton.Caption="OK"
OkButton.Caption=""

[IRC_Page]
; EN: HasLeftText="has left"
HasLeftText=""
; EN: HasJoinedText="has joined"
HasJoinedText=""
; EN: WasKickedByText="was kicked by"
WasKickedByText=""
; EN: NowKnownAsText="is now known as"
NowKnownAsText=""
; EN: QuitText="Quit"
QuitText=""
; EN: SetsModeText="sets mode"
SetsModeText=""
; EN: NewTopicText="Topic"
NewTopicText=""

[IRC_System]
; EN: NotInAChannelText="Not in a channel!"
NotInAChannelText=""
; EN: KickedFromText="You were kicked from"
KickedFromText=""
; EN: ByText="by"
ByText=""
; EN: IsAwayText="is away"
IsAwayText=""
; EN: ConnectText="CONNECT"
ConnectText=""
; EN: DisconnectText="DISCONNECT"
DisconnectText=""
; EN: MyChannelLabel.Caption="Channel"
MyChannelLabel.Caption=""
; EN: MyJoinChannelButton.Caption="JOIN CHANNEL"
MyJoinChannelButton.Caption=""
; EN: MyRemoveChannelButton.Caption="REMOVE CHANNEL"
MyRemoveChannelButton.Caption=""
; EN: MyRemoveServerButton.Caption="REMOVE SERVER"
MyRemoveServerButton.Caption=""
; EN: MyServerLabel.Caption="Server"
MyServerLabel.Caption=""

[JoeTest]
; EN: TestButton1.Caption="Close Window"
TestButton1.Caption=""
; EN: TitleText.Caption="Joe's Amazing Test GUI"
TitleText.Caption=""

[JoeTestPanelA]
; EN: TestButtonA.Caption="Wow"
TestButtonA.Caption=""
; EN: TestButtonB.Caption="Damn"
TestButtonB.Caption=""

[ScoreBoardDeathMatch]
; EN: RankText="RANK"
RankText=""
; EN: PlayerText="PLAYER"
PlayerText=""
; EN: PointsText="SCORE"
PointsText=""
; EN: TimeText="TIME:"
TimeText=""
; EN: PingText="PING:"
PingText=""
; EN: PLText="P/L:"
PLText=""
; EN: DeathsText="DEATHS"
DeathsText=""
; EN: AdminText="ADMIN"
AdminText=""
; EN: NetText="NET"
NetText=""
; EN: FooterText="Elapsed Time:"
FooterText=""
; EN: MatchIDText="UT2004 Stats Match ID"
MatchIDText=""
; EN: OutText="OUT"
OutText=""
; EN: OutFireText="   You are OUT. [Fire] to view other players."
OutFireText=""
; EN: ReadyText="READY"
ReadyText=""
; EN: NotReadyText="NOT RDY"
NotReadyText=""
; EN: SkillLevel[0]="NOVICE"
SkillLevel[0]=""
; EN: SkillLevel[1]="AVERAGE"
SkillLevel[1]=""
; EN: SkillLevel[2]="EXPERIENCED"
SkillLevel[2]=""
; EN: SkillLevel[3]="SKILLED"
SkillLevel[3]=""
; EN: SkillLevel[4]="ADEPT"
SkillLevel[4]=""
; EN: SkillLevel[5]="MASTERFUL"
SkillLevel[5]=""
; EN: SkillLevel[6]="INHUMAN"
SkillLevel[6]=""
; EN: SkillLevel[7]="GODLIKE"
SkillLevel[7]=""
; EN: MaxLives="MAX LIVES:"
MaxLives=""
; EN: FragLimit="FRAG LIMIT:"
FragLimit=""
; EN: FPH="PPH"
FPH=""
; EN: GameType="GAME"
GameType=""
; EN: MapName=" in "
MapName=""
; EN: Restart="   You were killed. Press Fire to respawn!"
Restart=""
; EN: Continue=" Press [Fire] to continue!"
Continue=""
; EN: Ended="The match has ended."
Ended=""
; EN: TimeLimit="REMAINING TIME:"
TimeLimit=""
Spacer=" "

[ScoreBoardTeamDeathMatch]
; EN: FragLimit="SCORE LIMIT:"
FragLimit=""

[ServerBrowser]
; EN: MutantTypeName="Mutant"
MutantTypeName=""
; EN: InvasionTypeName="Invasion"
InvasionTypeName=""
; EN: LMSTypeName="Last Man Standing"
LMSTypeName=""
; EN: MyBRServerListPage.PageCaption="Bombing Run"
MyBRServerListPage.PageCaption=""
; EN: MyBuddiesPage.PageCaption="Buddies"
MyBuddiesPage.PageCaption=""
; EN: MyCTFServerListPage.PageCaption="CTF"
MyCTFServerListPage.PageCaption=""
; EN: MyCustomServerListPage.PageCaption="Custom"
MyCustomServerListPage.PageCaption=""
; EN: MyDMServerListPage.PageCaption="DM"
MyDMServerListPage.PageCaption=""
; EN: MyDomServerListPage.PageCaption="Double Dom"
MyDomServerListPage.PageCaption=""
; EN: MyFavoritesPage.PageCaption="Favorites"
MyFavoritesPage.PageCaption=""
; EN: MyIRCPage.PageCaption="Chat"
MyIRCPage.PageCaption=""
; EN: MyLANPage.PageCaption="LAN"
MyLANPage.PageCaption=""
; EN: MyMOTDPage.PageCaption="News"
MyMOTDPage.PageCaption=""
; EN: MyPrefsPage.PageCaption="Filter"
MyPrefsPage.PageCaption=""
; EN: MyTDMServerListPage.PageCaption="Team DM"
MyTDMServerListPage.PageCaption=""
; EN: ServerBrowserHeader.Caption="Server Browser"
ServerBrowserHeader.Caption=""
; N_K: KEYS, DO NOT TRANSLATE!
MutantType="xMutantGame"
InvasionType="Invasion"
LMSType="xLastManStanding"

[Tab_AdminPlayerList]
; EN: AdminPlayerBan.Caption="Ban"
AdminPlayerBan.Caption=""
; EN: AdminPlayerBan.Hint="Ban this player"
AdminPlayerBan.Hint=""
; EN: AdminPlayerKick.Caption="Kick"
AdminPlayerKick.Caption=""
; EN: AdminPlayerKick.Hint="Kick this player"
AdminPlayerKick.Hint=""

[Tab_AudioSettings]
; EN: AudioModes[0]="Software 3D Audio"
AudioModes[0]=""
; EN: AudioModes[1]="Hardware 3D Audio"
AudioModes[1]=""
; EN: AudioModes[2]="Hardware 3D Audio + EAX"
AudioModes[2]=""
; EN: AudioModes[3]="Safe Mode"
AudioModes[3]=""
; EN: VoiceModes[0]="All"
VoiceModes[0]=""
; EN: VoiceModes[1]="No auto-taunts"
VoiceModes[1]=""
; EN: VoiceModes[2]="No taunts"
VoiceModes[2]=""
; EN: VoiceModes[3]="None"
VoiceModes[3]=""
; EN: AnnounceModes[0]="None"
AnnounceModes[0]=""
; EN: AnnounceModes[1]="Minimal"
AnnounceModes[1]=""
; EN: AnnounceModes[2]="All"
AnnounceModes[2]=""
; EN: AudioAnnounce.Caption="Announcements"
AudioAnnounce.Caption=""
; EN: AudioAnnounce.Hint="Adjusts the amount of in-game announcements."
AudioAnnounce.Hint=""
; EN: AudioAnnouncerPack.Caption="Announcer Voice"
AudioAnnouncerPack.Caption=""
; EN: AudioAnnouncerPack.Hint="Select the Announcer for tonight's game."
AudioAnnouncerPack.Hint=""
; EN: AudioAutoTaunt.Caption="Auto-Taunt"
AudioAutoTaunt.Caption=""
; EN: AudioAutoTaunt.Hint="Enables your in-game player to automatically taunt opponents."
AudioAutoTaunt.Hint=""
; EN: AudioEffectsVolumeLabel.Caption="Effects Volume"
AudioEffectsVolumeLabel.Caption=""
; EN: AudioEffectsVolumeSlider.Hint="Changes the volume of all in game sound effects."
AudioEffectsVolumeSlider.Hint=""
; EN: AudioLowDetail.Caption="Low Sound Detail"
AudioLowDetail.Caption=""
; EN: AudioLowDetail.Hint="Lowers quality of sound."
AudioLowDetail.Hint=""
; EN: AudioMatureTaunts.Caption="Mature Taunts"
AudioMatureTaunts.Caption=""
; EN: AudioMatureTaunts.Hint="Enables off-color commentary."
AudioMatureTaunts.Hint=""
; EN: AudioMessageBeep.Caption="Message Beep"
AudioMessageBeep.Caption=""
; EN: AudioMessageBeep.Hint="Enables a beep when receiving a text message from other players."
AudioMessageBeep.Hint=""
; EN: AudioMode.Caption="Audio Mode"
AudioMode.Caption=""
; EN: AudioMode.Hint="Changes the audio system mode."
AudioMode.Hint=""
; EN: AudioMusicVolumeLabel.Caption="Music Volume"
AudioMusicVolumeLabel.Caption=""
; EN: AudioMusicVolumeSlider.Hint="Changes the volume of the background music."
AudioMusicVolumeSlider.Hint=""
; EN: AudioPlayVoices.Caption="Play Voices"
AudioPlayVoices.Caption=""
; EN: AudioPlayVoices.Hint="Defines the types of voice messages to play."
AudioPlayVoices.Hint=""
; EN: AudioReverseStereo.Caption="Reverse Stereo"
AudioReverseStereo.Caption=""
; EN: AudioReverseStereo.Hint="Reverses the left and right audio channels."
AudioReverseStereo.Hint=""
; EN: AudioVoiceVolumeLabel.Caption="Announcer Volume"
AudioVoiceVolumeLabel.Caption=""
; EN: AudioVoiceVolumeSlider.Hint="Changes the volume of all in game voice messages."
AudioVoiceVolumeSlider.Hint=""

[Tab_ControlSettings]
; EN: Bindings=((KeyLabel="Movement"),(KeyLabel="Forward"),(KeyLabel="Backward"),(KeyLabel="Strafe Left"),(KeyLabel="Strafe Right"),(KeyLabel="Jump"),(KeyLabel="Walk"),(KeyLabel="Crouch"),(KeyLabel="Strafe Toggle"),(KeyLabel="Looking"),(KeyLabel="Turn Left"),(KeyLabel="Turn Right"),(KeyLabel="Look Up"),(KeyLabel="Look Down"),(KeyLabel="Center View"),(KeyLabel="Weapons"),(KeyLabel="Fire"),(KeyLabel="Alt-Fire"),(KeyLabel="Throw Weapon"),(KeyLabel="Best Weapon"),(KeyLabel="Next Weapon"),(KeyLabel="Prev Weapon"),(KeyLabel="Last Weapon"),(KeyLabel="Weapon Selection"),(KeyLabel="Super Weapon"),(KeyLabel="Shield Gun"),(KeyLabel="Assault Rifle"),(KeyLabel="Bio-Rifle"),(KeyLabel="Shock Rifle"),(KeyLabel="Link Gun"),(KeyLabel="Minigun"),(KeyLabel="Flak Cannon"),(KeyLabel="Rocket Launcher"),(KeyLabel="Lightning Rifle"),(KeyLabel="Translocator"),(KeyLabel="Communication"),(KeyLabel="Say"),(KeyLabel="Team Say"),(KeyLabel="Speech Menu"),(KeyLabel="Taunts"),(KeyLabel="Pelvic Thrust"),(KeyLabel="Ass Smack"),(KeyLabel="Throat Cut"),(KeyLabel="Hud"),(KeyLabel="Grow Hud"),(KeyLabel="Shrink Hud"),(KeyLabel="Miscellaneous"),(KeyLabel="Pause"),(KeyLabel="Screenshot"),(KeyLabel="Menu"),(KeyLabel="ScoreBoard"),(KeyLabel="ScoreBoard Toggle"),(KeyLabel="In Game Chat"),(KeyLabel="Server Info"))
Bindings=((KeyLabel=""),(KeyLabel=""),(KeyLabel=""),(KeyLabel=""),(KeyLabel=""),(KeyLabel=""),(KeyLabel=""),(KeyLabel=""),(KeyLabel=""),(KeyLabel=""),(KeyLabel=""),(KeyLabel=""),(KeyLabel=""),(KeyLabel=""),(KeyLabel=""),(KeyLabel=""),(KeyLabel=""),(KeyLabel=""),(KeyLabel=""),(KeyLabel=""),(KeyLabel=""),(KeyLabel=""),(KeyLabel=""),(KeyLabel=""),(KeyLabel=""),(KeyLabel=""),(KeyLabel=""),(KeyLabel=""),(KeyLabel=""),(KeyLabel=""),(KeyLabel=""),(KeyLabel=""),(KeyLabel=""),(KeyLabel=""),(KeyLabel=""),(KeyLabel=""),(KeyLabel=""),(KeyLabel=""),(KeyLabel=""),(KeyLabel=""),(KeyLabel=""),(KeyLabel=""),(KeyLabel=""),(KeyLabel=""),(KeyLabel=""),(KeyLabel=""),(KeyLabel=""),(KeyLabel=""),(KeyLabel=""),(KeyLabel=""),(KeyLabel=""),(KeyLabel=""),(KeyLabel=""),(KeyLabel=""))
; EN: Labels=("Movement","Forward","Backward","Strafe Left","Strafe Right","Jump","Walk","Crouch","Strafe Toggle","Looking","Turn Left","Turn Right","Look Up","Look Down","Center View","Weapons","Fire","Alt-Fire","Throw Weapon","Best Weapon","Next Weapon","Prev Weapon","Last Weapon","Weapon Selection","Super Weapon","Shield Gun","Assault Rifle","Bio-Rifle","Shock Rifle","Link Gun","Minigun","Flak Cannon","Rocket Launcher","Lightning Rifle","Translocator","Communication","Say","Team Say","Speech Menu","Taunts","Pelvic Thrust","Ass Smack","Throat Cut","Hud","Grow Hud","Shrink Hud","Miscellaneous","Pause","Screenshot","Menu","ScoreBoard","ScoreBoard Toggle","In Game Chat","Server Info")
Labels=("","","","","","","","","","","","","","","","","","","","","","","","","","","","","","","","","","","","","","","","","","","","","","","","","","","","","","")
; EN: Footer="] Performs this action: "
Header=""
Footer=""
; EN: KeyConfigAliasLabel.Caption="Action"
KeyConfigAliasLabel.Caption=""
; EN: KeyConfigAliasLabel2.Caption="Key 1"
KeyConfigAliasLabel2.Caption=""
; EN: KeyConfigAliasLabel3.Caption="Key 2"
KeyConfigAliasLabel3.Caption=""
; EN: KeyConfigKeyList.Hint="Select control to config."
KeyConfigKeyList.Hint=""
; EN: KeyResetButton.Caption="RESET"
KeyResetButton.Caption=""
; EN: KeyResetButton.Hint="Reset keys to default values."
KeyResetButton.Hint=""

[Tab_DetailSettings]
; EN: DetailLevels[0]="Lowest"
DetailLevels[0]=""
; EN: DetailLevels[1]="Lower"
DetailLevels[1]=""
; EN: DetailLevels[2]="Low"
DetailLevels[2]=""
; EN: DetailLevels[3]="Normal"
DetailLevels[3]=""
; EN: DetailLevels[4]="High"
DetailLevels[4]=""
; EN: DetailLevels[5]="Higher"
DetailLevels[5]=""
; EN: DetailLevels[6]="Highest"
DetailLevels[6]=""
; EN: DetailActorDetail.Caption="World Detail"
DetailActorDetail.Caption=""
; EN: DetailActorDetail.Hint="Changes the level of detail used for optional geometry and effects."
DetailActorDetail.Hint=""
; EN: DetailBlob.Caption="Use Blob Shadows"
DetailBlob.Caption=""
; EN: DetailBlob.Hint="Enable blob shadows.  Recommended for low-performance PCs."
DetailBlob.Hint=""
; EN: DetailCharacterDetail.Caption="Character Detail"
DetailCharacterDetail.Caption=""
; EN: DetailCharacterDetail.Hint="Changes how much character detail will be rendered."
DetailCharacterDetail.Hint=""
; EN: DetailCharacterShadows.Caption="Character Shadows"
DetailCharacterShadows.Caption=""
; EN: DetailCharacterShadows.Hint="Enables character shadows."
DetailCharacterShadows.Hint=""
; EN: DetailCoronas.Caption="Coronas"
DetailCoronas.Caption=""
; EN: DetailCoronas.Hint="Enables coronas."
DetailCoronas.Hint=""
; EN: DetailDecalStay.Caption="Decal Stay"
DetailDecalStay.Caption=""
; EN: DetailDecalStay.Hint="Changes how long weapon scarring effects stay around."
DetailDecalStay.Hint="."
; EN: DetailDecals.Caption="Decals"
DetailDecals.Caption=""
; EN: DetailDecals.Hint="Enables weapon scarring effects."
DetailDecals.Hint=""
; EN: DetailDecoLayers.Caption="Foliage"
DetailDecoLayers.Caption=""
; EN: DetailDecoLayers.Hint="Enables grass and other decorative foliage."
DetailDecoLayers.Hint=""
; EN: DetailDetailTextures.Caption="Detail Textures"
DetailDetailTextures.Caption=""
; EN: DetailDetailTextures.Hint="Enables detail textures."
DetailDetailTextures.Hint=""
; EN: DetailDynamicLighting.Caption="Dynamic Lighting"
DetailDynamicLighting.Caption=""
; EN: DetailDynamicLighting.Hint="Enables dynamic lights."
DetailDynamicLighting.Hint=""
; EN: DetailPhysics.Caption="Physics Detail"
DetailPhysics.Caption=""
; EN: DetailPhysics.Hint="Changes the physics simulation level of detail."
DetailPhysics.Hint=""
; EN: DetailProjectors.Caption="Projectors"
DetailProjectors.Caption=""
; EN: DetailProjectors.Hint="Enables Projectors."
DetailProjectors.Hint=""
; EN: DetailTrilinear.Caption="Trilinear Filtering"
DetailTrilinear.Caption=""
; EN: DetailTrilinear.Hint="Enable trilinear filtering, recommended for high-performance PCs."
DetailTrilinear.Hint=""
; EN: DetailWorldDetail.Caption="Texture Detail"
DetailWorldDetail.Caption=""
; EN: DetailWorldDetail.Hint="Changes how much world detail will be rendered."
DetailWorldDetail.Hint=""

[Tab_GameSettings]
; EN: CrosshairNames[0]="Hidden"
CrosshairNames[0]=""
; EN: CrosshairNames[1]="Cross (1)"
CrosshairNames[1]=""
; EN: CrosshairNames[2]="Cross (2)"
CrosshairNames[2]=""
; EN: CrosshairNames[3]="Cross (3)"
CrosshairNames[3]=""
; EN: CrosshairNames[4]="Cross (4)"
CrosshairNames[4]=""
; EN: CrosshairNames[5]="Cross (5)"
CrosshairNames[5]=""
; EN: CrosshairNames[6]="Dot"
CrosshairNames[6]=""
; EN: CrosshairNames[7]="Pointer"
CrosshairNames[7]=""
; EN: CrosshairNames[8]="Triad (1)"
CrosshairNames[8]=""
; EN: CrosshairNames[9]="Triad (2)"
CrosshairNames[9]=""
; EN: CrosshairNames[10]="Triad (3)"
CrosshairNames[10]=""
; EN: CrosshairNames[11]="Bracket (1)"
CrosshairNames[11]=""
; EN: CrosshairNames[12]="Bracket (2)"
CrosshairNames[12]=""
; EN: CrosshairNames[13]="Circle (1)"
CrosshairNames[13]=""
; EN: CrosshairNames[14]="Circle (2)"
CrosshairNames[14]=""
; EN: GameAutoAim.Caption="Auto Aim"
GameAutoAim.Caption=""
; EN: GameAutoAim.Hint="Turn this option on to have UT2004 help you aim (not available in Multiplayer)."
GameAutoAim.Hint=""
; EN: GameCrossHair.Caption="Crosshair"
GameCrossHair.Caption=""
; EN: GameCrossHair.Hint="Please select your crosshair!"
GameCrossHair.Hint=""
; EN: GameDeathMsgs.Caption="No Console Death Messages"
GameDeathMsgs.Caption=""
; EN: GameDeathMsgs.Hint="Turn off reporting of death messages in console."
GameDeathMsgs.Hint=""
; EN: GameDodging.Caption="Dodging"
GameDodging.Caption=""
; EN: GameDodging.Hint="Turn this option off to disable special dodge moves."
GameDodging.Hint=""
; EN: GameHudCrossHairA.Hint="Changes the color of your crosshair."
GameHudCrossHairA.Hint=""
; EN: GameHudCrossHairALabel.Caption="Opacity:"
GameHudCrossHairALabel.Caption=""
; EN: GameHudCrossHairB.Hint="Changes the color of your crosshair."
GameHudCrossHairB.Hint=""
; EN: GameHudCrossHairBLabel.Caption="Blue:"
GameHudCrossHairBLabel.Caption=""
; EN: GameHudCrossHairG.Hint="Changes the color of your crosshair."
GameHudCrossHairG.Hint=""
; EN: GameHudCrossHairGLabel.Caption="Green:"
GameHudCrossHairGLabel.Caption=""
; EN: GameHudCrossHairR.Hint="Changes the color of your crosshair."
GameHudCrossHairR.Hint=""
; EN: GameHudCrossHairRLabel.Caption="Red:"
GameHudCrossHairRLabel.Caption=""
; EN: GameReduceGore.Caption="Reduce Gore"
GameReduceGore.Caption=""
; EN: GameReduceGore.Hint="Turn this option On to reduce the amount of blood and guts you see."
GameReduceGore.Hint=""
; EN: GameScreenFlashes.Caption="Screen Flashes"
GameScreenFlashes.Caption=""
; EN: GameScreenFlashes.Hint="Turn this option off to disable screen flashes when you take damage."
GameScreenFlashes.Hint=""
; EN: GameWeaponBob.Caption="Weapon Bob"
GameWeaponBob.Caption=""
; EN: GameWeaponBob.Hint="Prevent your weapon from bobbing up and down while moving."
GameWeaponBob.Hint=""

[Tab_HudSettings]
; EN: CrosshairNames[0]="Hidden"
CrosshairNames[0]=""
; EN: CrosshairNames[1]="Cross (1)"
CrosshairNames[1]=""
; EN: CrosshairNames[2]="Cross (2)"
CrosshairNames[2]=""
; EN: CrosshairNames[3]="Cross (3)"
CrosshairNames[3]=""
; EN: CrosshairNames[4]="Cross (4)"
CrosshairNames[4]=""
; EN: CrosshairNames[5]="Cross (5)"
CrosshairNames[5]=""
; EN: CrosshairNames[6]="Dot"
CrosshairNames[6]=""
; EN: CrosshairNames[7]="Pointer"
CrosshairNames[7]=""
; EN: CrosshairNames[8]="Triad (1)"
CrosshairNames[8]=""
; EN: CrosshairNames[9]="Triad (2)"
CrosshairNames[9]=""
; EN: CrosshairNames[10]="Triad (3)"
CrosshairNames[10]=""
; EN: CrosshairNames[11]="Bracket (1)"
CrosshairNames[11]=""